In1   [BCT,BCT2,tI2] (STD_PRIM doi:10.10
1.000000
  -1.64862220326816   1.64862220326816   2.45448079182210
   1.64862220326816  -1.64862220326816   2.45448079182210
   1.64862220326816   1.64862220326816  -2.45448079182210
1 
Direct(1) [A1] 
   0.00000000000000   0.00000000000000   0.00000000000000  In    
