As1   [RHL,RHL1,hR2] (STD_PRIM doi:10.10
1.000000
   3.76152219915812  -1.90886672173618   0.00074982422368
   3.76152219915812   1.90886672173618   0.00074982422368
   2.79219591602206   0.00000000000000   3.16171851133166
2 
Direct(2) [A2] 
   0.72657310146059   0.72657310146059   0.72657310146059  As    
   0.27342689853941   0.27342689853941   0.27342689853941  As    
