Ga1   [ORCC,ORCC,oS8] (STD_PRIM doi:10.1
1.000000
   2.26983139093302  -3.85693993953128   0.00000000000000
   2.26983139093302   3.85693993953128  -0.00000000000000
   0.00000000000000  -0.00000000000000   4.55433316513018
4 
Direct(4) [A4] 
   0.15602731279506   0.84397268720494   0.08168189720301  Ga    
   0.34397268720495   0.65602731279506   0.58168189720301  Ga    
   0.65602731279506   0.34397268720495   0.41831810279699  Ga    
   0.84397268720494   0.15602731279506   0.91831810279699  Ga    
