Hg1 #166.1 - (Hg1_ICSD_174005) - Hg1 [Hg
1.000000
   2.38227189894084  -1.96840413805762  -0.17551023951187
   2.38227189894084   1.96840413805762  -0.17551023951187
   0.98495049113271  -0.00000000000000   2.93436715926901
1 
Direct(1) [A1] 
   0.00000000000000   0.00000000000000   0.00000000000000  Hg    
